NAME: tsp_240
COMMENT: Random TSP instance
TYPE: TSP
DIMENSION: 50
EDGE_WEIGHT_TYPE: EUC_2D
NODE_COORD_SECTION
1 41 419
2 968 80
3 289 167
4 435 664
5 764 102
6 422 423
7 893 484
8 354 262
9 587 399
10 972 62
11 405 308
12 221 635
13 159 462
14 523 559
15 167 276
16 247 282
17 735 514
18 137 814
19 744 827
20 568 812
21 390 532
22 39 247
23 338 825
24 247 675
25 576 549
26 130 811
27 900 507
28 155 988
29 233 347
30 382 810
31 850 523
32 961 40
33 832 722
34 867 81
35 420 33
36 370 274
37 798 27
38 633 50
39 835 590
40 117 244
41 976 924
42 245 380
43 198 178
44 366 168
45 339 800
46 691 51
47 781 713
48 395 66
49 250 77
50 257 691
